SPARKNaCl/why3-cvc5/sparknacl.ads_483_19_postcondition2_1.smt2
;; produced by cvc5.drv ;;
(set-logic ALL)
(set-info :smt-lib-version 2.6)
;;; generated by SMT-LIB2 driver
;;; SMT-LIB2 driver: bit-vectors, common part
;;; SMT-LIB2: integer arithmetic
(declare-sort gf32_any_limb 0)

;; "gf32_any_limb'int"
(declare-fun gf32_any_limbqtint (gf32_any_limb) Int)

;; "gf32_any_limb'axiom"
(assert
  (forall ((i gf32_any_limb))
    (and
      (<= (- 65536) (gf32_any_limbqtint i))
      (<= (gf32_any_limbqtint i) 132051011))))

;; "in_range"
(define-fun in_range ((x Int)) Bool
  (and (<= (- 65536) x) (<= x 132051011)))

;; "to_rep"
(define-fun to_rep ((x gf32_any_limb)) Int
  (gf32_any_limbqtint x))

;; "of_rep"
(declare-fun of_rep (Int) gf32_any_limb)

;; "inversion_axiom"
(assert
  (forall ((x gf32_any_limb))
    (! (= (of_rep (to_rep x)) x) :pattern ((to_rep x)) )))

;; "range_axiom"
(assert
  (forall ((x gf32_any_limb))
    (! (in_range (to_rep x)) :pattern ((to_rep x)) )))

;; "coerce_axiom"
(assert
  (forall ((x Int))
    (! (=> (in_range x) (= (to_rep (of_rep x)) x)) :pattern ((to_rep
                                                               (of_rep x))) )))

(declare-sort map1 0)

;; "has_bounds"
(declare-fun has_bounds (map1
  Int
  Int) Bool)

;; "get"
(declare-fun get (map1
  Int) gf32_any_limb)

;; "temp_____aggregate_def_3637"
(declare-fun temp_____aggregate_def_3637 (Int) map1)

(declare-const rliteral gf32_any_limb)

;; "rliteral_axiom"
(assert (= (gf32_any_limbqtint rliteral) 0))

;; Goal "def'vc"
;; File "sparknacl.ads", line 480, characters 0-0
(assert
  (not
  (forall ((r map1))
    (=>
      (has_bounds r 0 15)
      (forall ((temp___3641 map1))
        (=>
          (and
            (and
              (has_bounds temp___3641 0 15)
              (forall ((temp___3640 Int))
                (! (=>
                     (and (<= 0 temp___3640) (<= temp___3640 15))
                     (= (get temp___3641 temp___3640) rliteral)) :pattern (
                (get
                  temp___3641
                  temp___3640)) )))
            (= temp___3641 (temp_____aggregate_def_3637 0)))
          (forall ((r1 map1))
            (=>
              (= r1 temp___3641)
              (forall ((i Int))
                (=> (and (<= 0 i) (<= i 15)) (<= (to_rep (get r1 i)) 65535)))))))))))

(check-sat)
